xclingo version 2.0b16
Reading from /bin/text2ALM/Master/LogicPrograms/listsA/listsANarrative1.tp.lp /bin/text2ALM/Master/Queries/query1.lp trace-rule.lp
Answer: 1
##Explanation: 1.1
  *
  |__"mary is holding [football] at time point 4"
  |  |__"Since mary obtained the football in sentence 3"

##Total Explanations:	1
Models:	1
xclingo version 2.0b16
Reading from /bin/text2ALM/Master/LogicPrograms/listsA/listsANarrative2.tp.lp /bin/text2ALM/Master/Queries/query2.lp trace-rule.lp
Answer: 1
##Explanation: 1.1
##Total Explanations:	1
Models:	1
xclingo version 2.0b16
Reading from /bin/text2ALM/Master/LogicPrograms/listsA/listsANarrative3.tp.lp /bin/text2ALM/Master/Queries/query3.lp trace-rule.lp
Answer: 1
##Explanation: 1.1
  *
  |__"mary is holding [football] at time point 8"
  |  |__"Since mary obtained the football in sentence 3"
  |  |__"Since mary obtained the football in sentence 7"
  |  |__"Since mary dropped the football in sentence 6"

##Explanation: 1.2
  *
  |__"mary is holding [football] at time point 8"
  |  |__"Since mary obtained the football in sentence 3"
  |  |__"Since mary obtained the football in sentence 7"

##Explanation: 1.3
  *
  |__"mary is holding [football] at time point 8"
  |  |__"Since mary obtained the football in sentence 7"
  |  |__"Since mary dropped the football in sentence 6"

##Explanation: 1.4
  *
  |__"mary is holding [football] at time point 8"
  |  |__"Since mary obtained the football in sentence 7"

##Total Explanations:	4
Models:	1
xclingo version 2.0b16
Reading from /bin/text2ALM/Master/LogicPrograms/listsA/listsANarrative4.tp.lp /bin/text2ALM/Master/Queries/query4.lp trace-rule.lp
Answer: 1
##Explanation: 1.1
  *
  |__"sandra is holding [milk] at time point 10"
  |  |__"Since sandra obtained the milk in sentence 9"

##Total Explanations:	1
Models:	1
xclingo version 2.0b16
Reading from /bin/text2ALM/Master/LogicPrograms/listsA/listsANarrative5.tp.lp /bin/text2ALM/Master/Queries/query5.lp trace-rule.lp
Answer: 1
##Explanation: 1.1
  *
  |__"sandra is holding [milk] at time point 12"
  |  |__"Since sandra obtained the milk in sentence 9"

##Total Explanations:	1
Models:	1
